p cnf 23 12
-2 -7 20 -3 -14 18 0
-15 -5 -19 0
-1 18 -16 2 -10 -13 0
-14 -16 23 19 9 -7 -6 12 8 0
5 -15 2 7 -6 -23 0
-23 -1 -8 3 -14 -22 -9 0
23 -13 8 10 14 4 22 0
-22 -21 -23 -1 0
-2 -9 1 12 -19 0
-15 6 4 9 18 -16 0
16 -15 14 10 18 20 -12 8 17 0
10 -20 -7 -13 -18 4 0
